[1111111, 111112, 111121, 11113, 111211, 11122, 11131, 112111, 11212, 11221, 1123, 11311, 1132, 121111, 12112, 12121, 1213, 12211, 1222, 1231, 13111, 1312, 1321, 133, 211111, 21112, 21121, 2113, 21211, 2122, 2131, 22111, 2212, 2221, 223, 2311, 232, 31111, 3112, 3121, 313, 3211, 322, 331]
